; POP DUP1 PUSH 0x00 ADD SLOAD SWAP2 => SWAP2 DUP2 SLOAD SWAP3 POP
(set-option :produce-proofs true)
; 
(set-info :status unknown)
(declare-fun storage_t ((_ BitVec 256) (_ BitVec 256) (_ BitVec 256) (_ BitVec 256) Int (_ BitVec 256)) (_ BitVec 256))
(declare-fun storage_s ((_ BitVec 256) (_ BitVec 256) (_ BitVec 256) (_ BitVec 256) Int (_ BitVec 256)) (_ BitVec 256))
(declare-fun exc_halt_t (Int) Bool)
(declare-fun exc_halt_s (Int) Bool)
(declare-fun sc_t (Int) (_ BitVec 6))
(declare-fun stack_t ((_ BitVec 256) (_ BitVec 256) (_ BitVec 256) (_ BitVec 256) Int (_ BitVec 6)) (_ BitVec 256))
(declare-fun stack_s ((_ BitVec 256) (_ BitVec 256) (_ BitVec 256) (_ BitVec 256) Int (_ BitVec 6)) (_ BitVec 256))
(declare-fun sc_s (Int) (_ BitVec 6))
(declare-fun used_gas_t ((_ BitVec 256) (_ BitVec 256) (_ BitVec 256) (_ BitVec 256) Int) Int)
(declare-fun used_gas_s ((_ BitVec 256) (_ BitVec 256) (_ BitVec 256) (_ BitVec 256) Int) Int)
(assert
 (exists ((x_0 (_ BitVec 256)) (x_1 (_ BitVec 256)) (x_2 (_ BitVec 256)) (x_SLOAD_0 (_ BitVec 256)) )(let (($x10656 (forall ((w (_ BitVec 256)) )(let ((?x732 (storage_t x_0 x_1 x_2 x_SLOAD_0 5 w)))
 (let ((?x8291 (storage_s x_0 x_1 x_2 x_SLOAD_0 6 w)))
 (= ?x8291 ?x732))))
 ))
 (let (($x886 (exc_halt_t 5)))
 (let (($x772 (exc_halt_s 6)))
 (let (($x889 (= $x772 $x886)))
 (let (($x10531 (forall ((n (_ BitVec 6)) )(let ((?x2769 (stack_t x_0 x_1 x_2 x_SLOAD_0 5 n)))
 (let ((?x8491 (stack_s x_0 x_1 x_2 x_SLOAD_0 6 n)))
 (let (($x744 (= ?x8491 ?x2769)))
 (or $x744 (bvsle (sc_t 5) n))))))
 ))
 (let ((?x919 (sc_t 5)))
 (let ((?x926 (sc_s 6)))
 (let (($x929 (= ?x926 ?x919)))
 (let ((?x588 (used_gas_t x_0 x_1 x_2 x_SLOAD_0 0)))
 (let ((?x8626 (used_gas_s x_0 x_1 x_2 x_SLOAD_0 0)))
 (let (($x10981 (= ?x8626 ?x588)))
 (let (($x7687 (forall ((w (_ BitVec 256)) )(let ((?x3029 (storage_t x_0 x_1 x_2 x_SLOAD_0 0 w)))
 (let ((?x9319 (storage_s x_0 x_1 x_2 x_SLOAD_0 0 w)))
 (= ?x9319 ?x3029))))
 ))
 (let (($x56 (exc_halt_t 0)))
 (let (($x57 (exc_halt_s 0)))
 (let (($x58 (= $x57 $x56)))
 (let (($x5803 (forall ((n (_ BitVec 6)) )(let ((?x8401 (stack_t x_0 x_1 x_2 x_SLOAD_0 0 n)))
 (let ((?x7988 (stack_s x_0 x_1 x_2 x_SLOAD_0 0 n)))
 (let (($x6005 (= ?x7988 ?x8401)))
 (or $x6005 (bvsle (sc_t 0) n))))))
 ))
 (let ((?x63 (sc_t 0)))
 (let ((?x72 (sc_s 0)))
 (let (($x73 (= ?x72 ?x63)))
 (let (($x2428 (= $x886 (or (exc_halt_t 4) (not (bvsle (_ bv0 6) (bvadd (_ bv63 6) (sc_t 4))))))))
 (let (($x7919 (forall ((w (_ BitVec 256)) )(let ((?x2936 (storage_t x_0 x_1 x_2 x_SLOAD_0 4 w)))
 (let ((?x732 (storage_t x_0 x_1 x_2 x_SLOAD_0 5 w)))
 (= ?x732 ?x2936))))
 ))
 (let (($x4179 (forall ((n (_ BitVec 6)) )(let ((?x11147 (stack_t x_0 x_1 x_2 x_SLOAD_0 4 n)))
 (let ((?x2769 (stack_t x_0 x_1 x_2 x_SLOAD_0 5 n)))
 (or (bvsle (bvadd (_ bv63 6) (sc_t 4)) n) (= ?x2769 ?x11147)))))
 ))
 (let (($x927 (= (used_gas_t x_0 x_1 x_2 x_SLOAD_0 5) (+ 2 (used_gas_t x_0 x_1 x_2 x_SLOAD_0 4)))))
 (let (($x3723 (exc_halt_t 4)))
 (let (($x1624 (= $x3723 (or (exc_halt_t 3) (not (bvsle (_ bv0 6) (bvadd (_ bv60 6) (sc_t 3))))))))
 (let (($x2680 (forall ((w (_ BitVec 256)) )(let ((?x11028 (storage_t x_0 x_1 x_2 x_SLOAD_0 3 w)))
 (let ((?x2936 (storage_t x_0 x_1 x_2 x_SLOAD_0 4 w)))
 (= ?x2936 ?x11028))))
 ))
 (let (($x10059 (forall ((n (_ BitVec 6)) )(let ((?x5016 (stack_t x_0 x_1 x_2 x_SLOAD_0 3 n)))
 (let ((?x11147 (stack_t x_0 x_1 x_2 x_SLOAD_0 4 n)))
 (or (bvsle (bvadd (_ bv60 6) (sc_t 3)) n) (= ?x11147 ?x5016)))))
 ))
 (let ((?x7644 (used_gas_t x_0 x_1 x_2 x_SLOAD_0 4)))
 (let (($x10249 (= (stack_t x_0 x_1 x_2 x_SLOAD_0 4 (bvadd (_ bv62 6) (sc_t 4))) (stack_t x_0 x_1 x_2 x_SLOAD_0 3 (bvadd (_ bv62 6) (sc_t 3))))))
 (let (($x3959 (= (stack_t x_0 x_1 x_2 x_SLOAD_0 4 (bvadd (_ bv61 6) (sc_t 4))) (stack_t x_0 x_1 x_2 x_SLOAD_0 3 (bvadd (_ bv61 6) (sc_t 3))))))
 (let ((?x2662 (stack_t x_0 x_1 x_2 x_SLOAD_0 3 (bvadd (_ bv63 6) (sc_t 3)))))
 (let (($x5641 (= (stack_t x_0 x_1 x_2 x_SLOAD_0 4 (bvadd (_ bv60 6) (sc_t 4))) ?x2662)))
 (let (($x3527 (= (stack_t x_0 x_1 x_2 x_SLOAD_0 4 (bvadd (_ bv63 6) (sc_t 4))) (stack_t x_0 x_1 x_2 x_SLOAD_0 3 (bvadd (_ bv60 6) (sc_t 3))))))
 (let (($x6783 (exc_halt_t 3)))
 (let (($x4644 (= $x6783 (or (exc_halt_t 2) (not (bvsle (_ bv0 6) (bvadd (_ bv63 6) (sc_t 2))))))))
 (let (($x3876 (forall ((w (_ BitVec 256)) )(let ((?x5195 (storage_t x_0 x_1 x_2 x_SLOAD_0 2 w)))
 (let ((?x11028 (storage_t x_0 x_1 x_2 x_SLOAD_0 3 w)))
 (= ?x11028 ?x5195))))
 ))
 (let (($x1700 (forall ((n (_ BitVec 6)) )(let ((?x8280 (stack_t x_0 x_1 x_2 x_SLOAD_0 2 n)))
 (let ((?x5016 (stack_t x_0 x_1 x_2 x_SLOAD_0 3 n)))
 (or (bvsle (bvadd (_ bv63 6) (sc_t 2)) n) (= ?x5016 ?x8280)))))
 ))
 (let ((?x4794 (used_gas_t x_0 x_1 x_2 x_SLOAD_0 3)))
 (let ((?x2714 (sc_t 2)))
 (let ((?x3328 (bvadd (_ bv63 6) ?x2714)))
 (let ((?x3698 (stack_t x_0 x_1 x_2 x_SLOAD_0 2 ?x3328)))
 (let (($x3508 (exc_halt_t 1)))
 (let (($x1318 (or (not (bvsle (_ bv0 6) (bvadd (_ bv62 6) (sc_t 1)))) $x3508 (not (= ((_ extract 6 6) (bvadd (_ bv1 7) (concat (_ bv0 1) (sc_t 1)))) (_ bv0 1))))))
 (let (($x5252 (exc_halt_t 2)))
 (let (($x42 (forall ((w (_ BitVec 256)) )(let ((?x4785 (storage_t x_0 x_1 x_2 x_SLOAD_0 1 w)))
 (let ((?x5195 (storage_t x_0 x_1 x_2 x_SLOAD_0 2 w)))
 (= ?x5195 ?x4785))))
 ))
 (let (($x5353 (forall ((n (_ BitVec 6)) )(let ((?x2177 (stack_t x_0 x_1 x_2 x_SLOAD_0 1 n)))
 (let ((?x8280 (stack_t x_0 x_1 x_2 x_SLOAD_0 2 n)))
 (or (bvsle (bvadd (_ bv62 6) (sc_t 1)) n) (= ?x8280 ?x2177)))))
 ))
 (let ((?x3591 (used_gas_t x_0 x_1 x_2 x_SLOAD_0 2)))
 (let ((?x8347 (sc_t 1)))
 (let ((?x9704 (bvadd (_ bv63 6) ?x8347)))
 (let ((?x11004 (stack_t x_0 x_1 x_2 x_SLOAD_0 1 ?x9704)))
 (let ((?x11637 (bvadd (_ bv62 6) ?x8347)))
 (let ((?x3857 (stack_t x_0 x_1 x_2 x_SLOAD_0 1 ?x11637)))
 (let (($x1846 (forall ((w (_ BitVec 256)) )(let ((?x3029 (storage_t x_0 x_1 x_2 x_SLOAD_0 0 w)))
 (let ((?x4785 (storage_t x_0 x_1 x_2 x_SLOAD_0 1 w)))
 (= ?x4785 ?x3029))))
 ))
 (let (($x30 (forall ((n (_ BitVec 6)) )(let ((?x8401 (stack_t x_0 x_1 x_2 x_SLOAD_0 0 n)))
 (let ((?x2177 (stack_t x_0 x_1 x_2 x_SLOAD_0 1 n)))
 (or (bvsle (bvadd (_ bv61 6) (sc_t 0)) n) (= ?x2177 ?x8401)))))
 ))
 (let (($x11842 (= (stack_t x_0 x_1 x_2 x_SLOAD_0 1 (bvadd (_ bv61 6) ?x8347)) (stack_t x_0 x_1 x_2 x_SLOAD_0 0 (bvadd (_ bv63 6) ?x63)))))
 (let (($x8672 (= $x772 (or (exc_halt_s 5) (not (bvsle (_ bv0 6) (bvadd (_ bv61 6) (sc_s 5))))))))
 (let (($x4828 (forall ((w (_ BitVec 256)) )(let ((?x4748 (storage_s x_0 x_1 x_2 x_SLOAD_0 5 w)))
 (let ((?x8291 (storage_s x_0 x_1 x_2 x_SLOAD_0 6 w)))
 (= ?x8291 ?x4748))))
 ))
 (let (($x10420 (forall ((n (_ BitVec 6)) )(let ((?x4718 (stack_s x_0 x_1 x_2 x_SLOAD_0 5 n)))
 (let ((?x8491 (stack_s x_0 x_1 x_2 x_SLOAD_0 6 n)))
 (or (bvsle (bvadd (_ bv61 6) (sc_s 5)) n) (= ?x8491 ?x4718)))))
 ))
 (let (($x5211 (= (used_gas_s x_0 x_1 x_2 x_SLOAD_0 6) (+ 3 (used_gas_s x_0 x_1 x_2 x_SLOAD_0 5)))))
 (let (($x2244 (= (stack_s x_0 x_1 x_2 x_SLOAD_0 6 (bvadd (_ bv62 6) ?x926)) (stack_s x_0 x_1 x_2 x_SLOAD_0 5 (bvadd (_ bv62 6) (sc_s 5))))))
 (let ((?x8904 (stack_s x_0 x_1 x_2 x_SLOAD_0 5 (bvadd (_ bv63 6) (sc_s 5)))))
 (let (($x2709 (= (stack_s x_0 x_1 x_2 x_SLOAD_0 6 (bvadd (_ bv63 6) ?x926)) (stack_s x_0 x_1 x_2 x_SLOAD_0 5 (bvadd (_ bv61 6) (sc_s 5))))))
 (let (($x11317 (exc_halt_s 5)))
 (let (($x1632 (= $x11317 (or (exc_halt_s 4) (not (bvsle (_ bv0 6) (bvadd (_ bv63 6) (sc_s 4))))))))
 (let (($x6403 (forall ((w (_ BitVec 256)) )(let ((?x2271 (storage_s x_0 x_1 x_2 x_SLOAD_0 4 w)))
 (let ((?x4748 (storage_s x_0 x_1 x_2 x_SLOAD_0 5 w)))
 (= ?x4748 ?x2271))))
 ))
 (let (($x11767 (forall ((n (_ BitVec 6)) )(let ((?x7784 (stack_s x_0 x_1 x_2 x_SLOAD_0 4 n)))
 (let ((?x4718 (stack_s x_0 x_1 x_2 x_SLOAD_0 5 n)))
 (or (bvsle (bvadd (_ bv63 6) (sc_s 4)) n) (= ?x4718 ?x7784)))))
 ))
 (let ((?x10398 (used_gas_s x_0 x_1 x_2 x_SLOAD_0 5)))
 (let ((?x4305 (sc_s 4)))
 (let ((?x8501 (bvadd (_ bv63 6) ?x4305)))
 (let ((?x1127 (stack_s x_0 x_1 x_2 x_SLOAD_0 4 ?x8501)))
 (let (($x7172 (exc_halt_s 4)))
 (let (($x11446 (= $x7172 (or (exc_halt_s 3) (not (bvsle (_ bv0 6) (bvadd (_ bv62 6) (sc_s 3))))))))
 (let (($x11319 (forall ((w (_ BitVec 256)) )(let ((?x7628 (storage_s x_0 x_1 x_2 x_SLOAD_0 3 w)))
 (let ((?x2271 (storage_s x_0 x_1 x_2 x_SLOAD_0 4 w)))
 (= ?x2271 ?x7628))))
 ))
 (let (($x9953 (forall ((n (_ BitVec 6)) )(let ((?x10001 (stack_s x_0 x_1 x_2 x_SLOAD_0 3 n)))
 (let ((?x7784 (stack_s x_0 x_1 x_2 x_SLOAD_0 4 n)))
 (or (bvsle (bvadd (_ bv62 6) (sc_s 3)) n) (= ?x7784 ?x10001)))))
 ))
 (let ((?x6268 (used_gas_s x_0 x_1 x_2 x_SLOAD_0 4)))
 (let ((?x8053 (bvadd (stack_s x_0 x_1 x_2 x_SLOAD_0 3 (bvadd (_ bv63 6) (sc_s 3))) (stack_s x_0 x_1 x_2 x_SLOAD_0 3 (bvadd (_ bv62 6) (sc_s 3))))))
 (let (($x247 (exc_halt_s 2)))
 (let (($x3456 (or $x247 (not (= ((_ extract 6 6) (bvadd (_ bv1 7) (concat (_ bv0 1) (sc_s 2)))) (_ bv0 1))))))
 (let (($x292 (exc_halt_s 3)))
 (let (($x6308 (forall ((w (_ BitVec 256)) )(let ((?x9566 (storage_s x_0 x_1 x_2 x_SLOAD_0 2 w)))
 (let ((?x7628 (storage_s x_0 x_1 x_2 x_SLOAD_0 3 w)))
 (= ?x7628 ?x9566))))
 ))
 (let (($x7354 (forall ((n (_ BitVec 6)) )(let ((?x7138 (stack_s x_0 x_1 x_2 x_SLOAD_0 2 n)))
 (let ((?x10001 (stack_s x_0 x_1 x_2 x_SLOAD_0 3 n)))
 (or (bvsle (sc_s 2) n) (= ?x10001 ?x7138)))))
 ))
 (let ((?x3784 (used_gas_s x_0 x_1 x_2 x_SLOAD_0 3)))
 (let (($x189 (exc_halt_s 1)))
 (let (($x4275 (or $x189 (not (bvsle (_ bv0 6) (bvadd (_ bv63 6) (sc_s 1)))) (not (= ((_ extract 6 6) (bvadd (_ bv1 7) (concat (_ bv0 1) (sc_s 1)))) (_ bv0 1))))))
 (let (($x7867 (forall ((w (_ BitVec 256)) )(let ((?x3379 (storage_s x_0 x_1 x_2 x_SLOAD_0 1 w)))
 (let ((?x9566 (storage_s x_0 x_1 x_2 x_SLOAD_0 2 w)))
 (= ?x9566 ?x3379))))
 ))
 (let (($x3748 (forall ((n (_ BitVec 6)) )(let ((?x11017 (stack_s x_0 x_1 x_2 x_SLOAD_0 1 n)))
 (let ((?x7138 (stack_s x_0 x_1 x_2 x_SLOAD_0 2 n)))
 (or (bvsle (bvadd (_ bv63 6) (sc_s 1)) n) (= ?x7138 ?x11017)))))
 ))
 (let ((?x5369 (used_gas_s x_0 x_1 x_2 x_SLOAD_0 2)))
 (let ((?x154 (sc_s 1)))
 (let ((?x11262 (bvadd (_ bv63 6) ?x154)))
 (let ((?x9182 (stack_s x_0 x_1 x_2 x_SLOAD_0 1 ?x11262)))
 (let (($x2015 (= (stack_s x_0 x_1 x_2 x_SLOAD_0 2 (bvadd (_ bv63 6) (sc_s 2))) ?x9182)))
 (let (($x10395 (forall ((w (_ BitVec 256)) )(let ((?x9319 (storage_s x_0 x_1 x_2 x_SLOAD_0 0 w)))
 (let ((?x3379 (storage_s x_0 x_1 x_2 x_SLOAD_0 1 w)))
 (= ?x3379 ?x9319))))
 ))
 (let (($x8938 (forall ((n (_ BitVec 6)) )(let ((?x7988 (stack_s x_0 x_1 x_2 x_SLOAD_0 0 n)))
 (let ((?x11017 (stack_s x_0 x_1 x_2 x_SLOAD_0 1 n)))
 (or (bvsle (bvadd (_ bv63 6) (sc_s 0)) n) (= ?x11017 ?x7988)))))
 ))
 (let (($x10991 (forall ((w (_ BitVec 256)) )(let (($x5302 (= w (stack_s x_0 x_1 x_2 x_SLOAD_0 4 (bvadd (_ bv63 6) (sc_s 4))))))
 (let ((?x9319 (storage_s x_0 x_1 x_2 x_SLOAD_0 0 w)))
 (= ?x9319 (ite $x5302 x_SLOAD_0 (_ bv0 256))))))
 ))
 (let (($x2882 (= ?x8626 0)))
 (let (($x8411 (= (stack_s x_0 x_1 x_2 x_SLOAD_0 0 (_ bv2 6)) x_2)))
 (let (($x5924 (= (stack_s x_0 x_1 x_2 x_SLOAD_0 0 (_ bv1 6)) x_1)))
 (let (($x8892 (= (stack_s x_0 x_1 x_2 x_SLOAD_0 0 (_ bv0 6)) x_0)))
 (let (($x5315 (= ?x72 (_ bv3 6))))
 (and $x5315 $x8892 $x5924 $x8411 (not $x57) $x2882 $x10991 (= (used_gas_s x_0 x_1 x_2 x_SLOAD_0 1) (+ 2 ?x8626)) (= ?x154 (bvadd (_ bv63 6) ?x72)) $x8938 $x10395 (= $x189 (or $x57 (not (bvsle (_ bv0 6) (bvadd (_ bv63 6) ?x72))))) $x2015 (= (stack_s x_0 x_1 x_2 x_SLOAD_0 2 ?x11262) ?x9182) (= ?x5369 (+ 3 (used_gas_s x_0 x_1 x_2 x_SLOAD_0 1))) (= (sc_s 2) (bvadd (_ bv1 6) ?x154)) $x3748 $x7867 (= $x247 $x4275) (= (stack_s x_0 x_1 x_2 x_SLOAD_0 3 (sc_s 2)) (_ bv0 256)) (= ?x3784 (+ 3 ?x5369)) (= (sc_s 3) (bvadd (_ bv1 6) (sc_s 2))) $x7354 $x6308 (= $x292 $x3456) (= ?x1127 ?x8053) (= ?x6268 (+ 3 ?x3784)) (= ?x4305 (bvadd (_ bv63 6) (sc_s 3))) $x9953 $x11319 $x11446 (= ?x8904 (storage_s x_0 x_1 x_2 x_SLOAD_0 4 ?x1127)) (= ?x10398 (+ 200 ?x6268)) (= (sc_s 5) ?x4305) $x11767 $x6403 $x1632 $x2709 (= (stack_s x_0 x_1 x_2 x_SLOAD_0 6 (bvadd (_ bv61 6) ?x926)) ?x8904) $x2244 $x5211 (= ?x926 (sc_s 5)) $x10420 $x4828 $x8672 (= ?x11004 (stack_t x_0 x_1 x_2 x_SLOAD_0 0 (bvadd (_ bv61 6) ?x63))) $x11842 (= ?x3857 (stack_t x_0 x_1 x_2 x_SLOAD_0 0 (bvadd (_ bv62 6) ?x63))) (= (used_gas_t x_0 x_1 x_2 x_SLOAD_0 1) (+ 3 ?x588)) (= ?x8347 ?x63) $x30 $x1846 (= $x3508 (or $x56 (not (bvsle (_ bv0 6) (bvadd (_ bv61 6) ?x63))))) (= ?x3698 ?x3857) (= (stack_t x_0 x_1 x_2 x_SLOAD_0 2 ?x11637) ?x3857) (= (stack_t x_0 x_1 x_2 x_SLOAD_0 2 ?x9704) ?x11004) (= ?x3591 (+ 3 (used_gas_t x_0 x_1 x_2 x_SLOAD_0 1))) (= ?x2714 (bvadd (_ bv1 6) ?x8347)) $x5353 $x42 (= $x5252 $x1318) (= ?x2662 (storage_t x_0 x_1 x_2 x_SLOAD_0 2 ?x3698)) (= ?x4794 (+ 200 ?x3591)) (= (sc_t 3) ?x2714) $x1700 $x3876 $x4644 $x3527 $x5641 $x3959 $x10249 (= ?x7644 (+ 3 ?x4794)) (= (sc_t 4) (sc_t 3)) $x10059 $x2680 $x1624 $x927 (= ?x919 (bvadd (_ bv63 6) (sc_t 4))) $x4179 $x7919 $x2428 $x73 $x5803 $x58 $x7687 $x10981 (not (and $x929 $x10531 $x889 $x10656)))))))))))))))))))))))))))))))))))))))))))))))))))))))))))))))))))))))))))))))))))))))))))))))))))))))
 )
(check-sat)
(get-proof)
